problems/csplib-prob056/sonet-models/noch/O2/lingeling/model_2_1-s2ring11-solution000001.eprime-solution
language ESSENCE' 1.0

letting network_ExplicitWithFlagsR6_Flags be [1, 1, 3, 1, 0, 0; int(1..6)]
letting network_ExplicitWithFlagsR6_Values_ExplicitVarSizeWithDummy be
        [[1, 2, 4, 5, 10; int(1..5)], [1, 3, 5, 6, 8; int(1..5)], [4, 9, 11, 11, 11; int(1..5)],
         [11, 11, 11, 11, 11; int(1..5)], [1, 1, 1, 1, 1; int(1..5)], [1, 1, 1, 1, 1; int(1..5)]; int(1..6)]
