problems/csplib-prob056/sonet-models/noch/O2/minion/model_2_1-s2ring11-solution000001.solution
language Essence 1.3

letting network be mset({}, {1, 2, 3, 4, 5}, {1, 2, 3, 4, 6}, {1, 2, 5, 6, 10}, {3, 5, 8}, {4, 9})
$ Visualisation for network
$ 
$  1  2  3  4  5
$  1  2  3  4  6
$  1  2  5  6 10
$  3  5  8
$  4  9

